(set-logic QF_SLIA)
(set-option :produce-models true)
(declare-const X String)
; IP-[^\n\r]*URL\d\u{7c}roogoo\u{7c}\.cfgmPOPrtCUSTOMPalToolbar
(assert (str.in_re X (re.++ (str.to_re "IP-") (re.* (re.union (str.to_re "\u{0a}") (str.to_re "\u{0d}"))) (str.to_re "URL") (re.range "0" "9") (str.to_re "|roogoo|.cfgmPOPrtCUSTOMPalToolbar\u{0a}"))))
; (\s(\bon[a-zA-Z][a-z]+)\s?\=\s?[\'\"]?(javascript\:)?[\w\(\),\' ]*;?[\'\"]?)+
(assert (not (str.in_re X (re.++ (re.+ (re.++ (re.union (str.to_re " ") (str.to_re "\u{09}") (str.to_re "\u{0a}") (str.to_re "\u{0c}") (str.to_re "\u{0d}")) (re.opt (re.union (str.to_re " ") (str.to_re "\u{09}") (str.to_re "\u{0a}") (str.to_re "\u{0c}") (str.to_re "\u{0d}"))) (str.to_re "=") (re.opt (re.union (str.to_re " ") (str.to_re "\u{09}") (str.to_re "\u{0a}") (str.to_re "\u{0c}") (str.to_re "\u{0d}"))) (re.opt (re.union (str.to_re "'") (str.to_re "\u{22}"))) (re.opt (str.to_re "javascript:")) (re.* (re.union (str.to_re "(") (str.to_re ")") (str.to_re ",") (str.to_re "'") (str.to_re " ") (re.range "0" "9") (re.range "A" "Z") (re.range "a" "z") (str.to_re "_"))) (re.opt (str.to_re ";")) (re.opt (re.union (str.to_re "'") (str.to_re "\u{22}"))) (str.to_re "on") (re.union (re.range "a" "z") (re.range "A" "Z")) (re.+ (re.range "a" "z")))) (str.to_re "\u{0a}")))))
; (^[+]?\d*\.?\d*[1-9]+\d*$)|(^[+]?[1-9]+\d*\.\d*$)
(assert (not (str.in_re X (re.union (re.++ (re.opt (str.to_re "+")) (re.* (re.range "0" "9")) (re.opt (str.to_re ".")) (re.* (re.range "0" "9")) (re.+ (re.range "1" "9")) (re.* (re.range "0" "9"))) (re.++ (str.to_re "\u{0a}") (re.opt (str.to_re "+")) (re.+ (re.range "1" "9")) (re.* (re.range "0" "9")) (str.to_re ".") (re.* (re.range "0" "9")))))))
; /exploit\/(Exploit(App)?|Loader)\.class/ims
(assert (not (str.in_re X (re.++ (str.to_re "/exploit/") (re.union (re.++ (str.to_re "Exploit") (re.opt (str.to_re "App"))) (str.to_re "Loader")) (str.to_re ".class/ims\u{0a}")))))
; ((\d{1,6}\-\d{1,6})|(\d{1,6}\\\d{1,6})|(\d{1,6})(\/)(\d{1,6})|(\w{1}\-?\d{1,6})|(\w{1}\s\d{1,6})|((P\.?O\.?\s)((BOX)|(Box))(\s\d{1,6}))|((([R]{2})|([H][C]))(\s\d{1,6}\s)((BOX)|(Box))(\s\d{1,6}))?)$
(assert (str.in_re X (re.++ (re.union (re.++ ((_ re.loop 1 6) (re.range "0" "9")) (str.to_re "-") ((_ re.loop 1 6) (re.range "0" "9"))) (re.++ ((_ re.loop 1 6) (re.range "0" "9")) (str.to_re "\u{5c}") ((_ re.loop 1 6) (re.range "0" "9"))) (re.++ ((_ re.loop 1 6) (re.range "0" "9")) (str.to_re "/") ((_ re.loop 1 6) (re.range "0" "9"))) (re.++ ((_ re.loop 1 1) (re.union (re.range "0" "9") (re.range "A" "Z") (re.range "a" "z") (str.to_re "_"))) (re.opt (str.to_re "-")) ((_ re.loop 1 6) (re.range "0" "9"))) (re.++ ((_ re.loop 1 1) (re.union (re.range "0" "9") (re.range "A" "Z") (re.range "a" "z") (str.to_re "_"))) (re.union (str.to_re " ") (str.to_re "\u{09}") (str.to_re "\u{0a}") (str.to_re "\u{0c}") (str.to_re "\u{0d}")) ((_ re.loop 1 6) (re.range "0" "9"))) (re.++ (re.union (str.to_re "BOX") (str.to_re "Box")) (str.to_re "P") (re.opt (str.to_re ".")) (str.to_re "O") (re.opt (str.to_re ".")) (re.union (str.to_re " ") (str.to_re "\u{09}") (str.to_re "\u{0a}") (str.to_re "\u{0c}") (str.to_re "\u{0d}")) (re.union (str.to_re " ") (str.to_re "\u{09}") (str.to_re "\u{0a}") (str.to_re "\u{0c}") (str.to_re "\u{0d}")) ((_ re.loop 1 6) (re.range "0" "9"))) (re.opt (re.++ (re.union ((_ re.loop 2 2) (str.to_re "R")) (str.to_re "HC")) (re.union (str.to_re "BOX") (str.to_re "Box")) (re.union (str.to_re " ") (str.to_re "\u{09}") (str.to_re "\u{0a}") (str.to_re "\u{0c}") (str.to_re "\u{0d}")) ((_ re.loop 1 6) (re.range "0" "9")) (re.union (str.to_re " ") (str.to_re "\u{09}") (str.to_re "\u{0a}") (str.to_re "\u{0c}") (str.to_re "\u{0d}")) (re.union (str.to_re " ") (str.to_re "\u{09}") (str.to_re "\u{0a}") (str.to_re "\u{0c}") (str.to_re "\u{0d}")) ((_ re.loop 1 6) (re.range "0" "9"))))) (str.to_re "\u{0a}"))))
(assert (> (str.len X) 10))
(check-sat)
